c Random Network
p max    10      20
n         1  s
n        10  t
a       7       1      37
a       9       3      28
a       4       3      13
a       2       4      37
a       1       3      34
a       4       8      28
a       5       3      47
a       2       3      45
a       3       4      15
a       9       7       7
a       8       4      31
a       6       2      13
a       2       6      15
a       3       7       6
a       4       2      19
a       7       6      36
a       3       9      43
a       3       8      24
a       7       2      29
a       5       2      43
